10 45
1 2 28
1 3 21
1 4 22
1 5 24
1 6 27
1 7 22
1 8 29
1 9 1
1 10 22
2 3 20
2 4 27
2 5 8
2 6 26
2 7 17
2 8 24
2 9 21
2 10 27
3 4 1
3 5 29
3 6 28
3 7 0
3 8 28
3 9 14
3 10 27
4 5 24
4 6 10
4 7 24
4 8 29
4 9 10
4 10 28
5 6 24
5 7 12
5 8 18
5 9 22
5 10 24
6 7 1
6 8 24
6 9 3
6 10 11
7 8 5
7 9 19
7 10 6
8 9 23
8 10 9
9 10 16
